nEmpreses = 35;
nReunions = 35;
nTaules = 4;
nFrangesTotal = 22;
nFrangesMati = 12;

demanades = [|4, 1, 3,
|4, 2, 3,
|4, 5, 3,
|9, 1, 2,
|9, 3, 2,
|9, 4, 2,
|14, 2, 2,
|17, 26, 1,
|17, 29, 1,
|22, 25, 3,
|23, 30, 3,
|24, 2, 3,
|24, 5, 3,
|24, 6, 3,
|24, 20, 3,
|24, 21, 3,
|24, 26, 3,
|25, 3, 3,
|25, 4, 3,
|25, 24, 3,
|28, 3, 1,
|28, 6, 1,
|28, 12, 1,
|28, 19, 1,
|28, 23, 1,
|33, 26, 3,
|33, 29, 3,
|33, 31, 3,
|34, 2, 3,
|34, 23, 3,
|34, 24, 3,
|35, 5, 3,
|35, 17, 3,
|35, 23, 3,
|35, 28, 3,
|];

nReunionsEmpresa = [2, 4, 3, 5, 3, 2, 0, 0, 3, 0, 0, 1, 0, 1, 0, 0, 3, 0, 1, 1, 1, 1, 4, 8, 4, 3, 0, 6, 2, 1, 1, 0, 3, 3, 4, ];
empresesZero = 10;

fixat = [0,0,0,0,0,0,0,0,0,0,0,0,0,0,0,0,0,0,0,0,0,0,0,0,0,0,0,0,0,0,0,0,0,0,0,];

prohibides = [{0,},
{8,9,0,},
{16,17,18,0,},
{18,19,20,15,16,17,},
{9,1,0,},
{0,},
{10,11,12,0,},
{16,17,18,0,},
{0,},
{17,18,19,0,},
{0,},
{16,17,0,},
{8,9,0,},
{16,17,18,0,},
{0,},
{9,10,11,0,},
{0,},
{16,17,18,0,},
{0,},
{17,18,19,0,},
{0,},
{1,2,3,4,5,},
{0,},
{0,},
{0,},
{16,17,18,0,},
{10,11,12,0,},
{0,},
{0,},
{10,11,12,0,},
{9,10,11,0,},
{18,19,20,0,},
{0,},
{10,11,12,9,},
{0,},
];